webassembly/ejemplos_dzn/3/folder3_json_89.dzn
TERM = { '.', 'in_1', 'in_2', 'in_4', 'in_3', 's(0)', 'in_0'};
null = '.';
s = 3;
n = 10;
ndeps = 2;
max_registers_sz = 3;
NR = 0;
registers = [| |];
dependencies = [|'i32.store_0', 'i32.store16_1', |'i32.store16_1', 'i32.load16_s_2'|];
GET_ENUM = { GET1, GET2, GET3};
SET_ENUM = { SET1, SET2, SET3};
TEE_ENUM = { TEE1, TEE2, TEE3};
N = 3;
OP = { 'i32.store_0', 'i32.store16_1', 'i32.load16_s_2' };
in_ops = [2, 2, 1 ];
out_ops = [0, 0, 1 ];
in1 = ['in_0', 'in_2', 'in_4' ];
in2 = ['in_1', 'in_3', '.' ];
in3 = ['.', '.', '.' ];
out1 = ['.', '.', 's(0)' ];
out2 = ['.', '.', '.' ];
out3 = ['.', '.', '.' ];
comm = [false, false, false ];
gas = [1, 1, 1 ];
sz = [1, 1, 1 ];
stor = [true, true, false ];
lb = [ 1, 1, 1 ];
ub = [ 3, 3, 3 ];
startstack = [ 'in_0', 'in_1', 'in_2', 'in_3', 'in_4', null, null, null, null, null ];
endstack = [ 's(0)', null, null, null, null, null, null, null, null, null ];
