webassembly/ejemplos_results/3/folder3_json_89.txt
value = 3;
fgas = [1, 1, 1];
fsize = [1, 1, 1];
states = 
[|   in_0, in_1, in_2, in_3, in_4, '.', '.', '.', '.',  '.'
 |   in_2, in_3, in_4,  '.',  '.', '.', '.', '.', '.', in_0
 |   in_4,  '.',  '.',  '.',  '.', '.', '.', '.', '.', in_0
 | 's(0)',  '.',  '.',  '.',  '.', '.', '.', '.', '.',  '.'
 |];
register_states = 
[| '.', '.', '.'
 | '.', '.', '.'
 | '.', '.', '.'
 | '.', '.', '.'
 |];
program = [O('i32.store_0'), O('i32.store16_1'), O('i32.load16_s_2')];
% time elapsed: 0.05 s
----------
==========
% time elapsed: 0.05 s
% [value > 2]
